param sigma
: 1   2 :=
1 0.00001 0.99999
2 0.10000 0.90000
3 0.20000 0.80000
4 0.30000 0.70000
5 0.40000 0.60000
6 0.50000 0.50000
7 0.90000 0.10000
8 0.80000 0.20000
9 0.70000 0.30000
10 0.60000 0.40000
11 0.99999 0.00001
;
set S:=
1 2 3 4 5 6 7 8 9 10 11 12 13 14 15 16 17 18 19 20 21 22 23 24 25 26 27 28 29 30 31 32 33 34 35 36 37 38 39 40 41 42 43 44 45 46 47 48 49 50 51 52 53 54 55 56 57 58 59 60 61 62 63 64 65 66 67 68 69 70 71 72 73 74 75 76 77 78 79 80 ;

set C:=
1 2 3 4 5 6 7 8 9 10 11 12 13 14 15 16 17 18 19 20 21 22 23 24 25 26 27 28 29 30 31 32 33 34 35 36 37 38 39 40 ;

set A:=
1_1 1_2 2_1 2_2 3_1 3_2 4_1 4_2 5_1 5_2 6_1 6_2 6_3 7_1 7_2 8_1 8_2 8_3 9_1 9_2 9_3 10_1 10_2 10_3 11_1 11_2 12_1 12_2 13_1 13_2 14_1 14_2 14_3 15_1 15_2 15_3 16_1 16_2 17_1 17_2 17_3 18_1 18_2 19_1 19_2 20_1 20_2 21_1 21_2 21_3 22_1 22_2 22_3 23_1 23_2 23_3 24_1 24_2 24_3 25_1 25_2 25_3 26_1 26_2 26_3 27_1 27_2 28_1 28_2 29_1 29_2 30_1 30_2 30_3 31_1 31_2 32_1 32_2 32_3 33_1 33_2 34_1 34_2 34_3 35_1 35_2 36_1 36_2 37_1 37_2 38_1 38_2 39_1 39_2 40_1 40_2 40_3 ;

set T:=
1_1_2 1_3_4 1_5_6 1_7_8 1_9_10 1_11_12 1_13_14 1_15_16 1_17_18 1_19_20
2_1_2 2_3_4 2_5_6 2_7_8 2_9_10 2_11_12 2_13_14 2_15_16 2_17_18 2_19_20
3_1_2 3_3_4 3_5_6 3_7_8 3_9_10 3_11_12 3_13_14 3_15_16 3_17_18 3_19_20
4_1_2 4_3_4 4_5_6 4_7_8 4_9_10 4_11_12 4_13_14 4_15_16 4_17_18 4_19_20
5_1_2 5_3_4 5_5_6 5_7_8 5_9_10 5_11_12 5_13_14 5_15_16 5_17_18 5_19_20
;

set R:=
1 2 3 4 5 6 7 8 9 10 11 12 13 14 15 16 17 18 19 20 ;

set Ac[1]:=
1_1 1_2 ;
set Ac[2]:=
2_1 2_2 ;
set Ac[3]:=
3_1 3_2 ;
set Ac[4]:=
4_1 4_2 ;
set Ac[5]:=
5_1 5_2 ;
set Ac[6]:=
6_1 6_2 6_3 ;
set Ac[7]:=
7_1 7_2 ;
set Ac[8]:=
8_1 8_2 8_3 ;
set Ac[9]:=
9_1 9_2 9_3 ;
set Ac[10]:=
10_1 10_2 10_3 ;
set Ac[11]:=
11_1 11_2 ;
set Ac[12]:=
12_1 12_2 ;
set Ac[13]:=
13_1 13_2 ;
set Ac[14]:=
14_1 14_2 14_3 ;
set Ac[15]:=
15_1 15_2 15_3 ;
set Ac[16]:=
16_1 16_2 ;
set Ac[17]:=
17_1 17_2 17_3 ;
set Ac[18]:=
18_1 18_2 ;
set Ac[19]:=
19_1 19_2 ;
set Ac[20]:=
20_1 20_2 ;
set Ac[21]:=
21_1 21_2 21_3 ;
set Ac[22]:=
22_1 22_2 22_3 ;
set Ac[23]:=
23_1 23_2 23_3 ;
set Ac[24]:=
24_1 24_2 24_3 ;
set Ac[25]:=
25_1 25_2 25_3 ;
set Ac[26]:=
26_1 26_2 26_3 ;
set Ac[27]:=
27_1 27_2 ;
set Ac[28]:=
28_1 28_2 ;
set Ac[29]:=
29_1 29_2 ;
set Ac[30]:=
30_1 30_2 30_3 ;
set Ac[31]:=
31_1 31_2 ;
set Ac[32]:=
32_1 32_2 32_3 ;
set Ac[33]:=
33_1 33_2 ;
set Ac[34]:=
34_1 34_2 34_3 ;
set Ac[35]:=
35_1 35_2 ;
set Ac[36]:=
36_1 36_2 ;
set Ac[37]:=
37_1 37_2 ;
set Ac[38]:=
38_1 38_2 ;
set Ac[39]:=
39_1 39_2 ;
set Ac[40]:=
40_1 40_2 40_3 ;

set Cs[1]:=
7 12 13 14 17 21 23 ;
set Cs[2]:=
1 8 9 13 19 26 30 31 40 ;
set Cs[3]:=
3 4 10 13 15 19 24 39 ;
set Cs[4]:=
4 10 28 30 35 ;
set Cs[5]:=
2 11 12 15 22 23 26 32 ;
set Cs[6]:=
6 11 13 20 31 40 ;
set Cs[7]:=
2 3 10 27 ;
set Cs[8]:=
9 13 14 17 19 33 37 39 ;
set Cs[9]:=
3 8 9 13 15 19 24 34 ;
set Cs[10]:=
2 12 15 27 34 ;
set Cs[11]:=
6 26 27 32 ;
set Cs[12]:=
7 11 14 18 22 30 ;
set Cs[13]:=
1 11 12 13 20 22 25 32 36 ;
set Cs[14]:=
9 10 23 25 29 31 32 34 37 39 ;
set Cs[15]:=
3 4 9 12 14 35 37 ;
set Cs[16]:=
7 8 28 36 39 ;
set Cs[17]:=
1 3 4 5 9 11 20 22 27 39 ;
set Cs[18]:=
5 7 8 10 11 20 22 31 ;
set Cs[19]:=
1 5 22 25 27 29 31 34 37 ;
set Cs[20]:=
6 9 11 18 29 30 31 38 ;
set Cs[21]:=
3 8 22 23 27 35 ;
set Cs[22]:=
1 18 20 24 34 ;
set Cs[23]:=
6 8 19 25 27 30 36 39 ;
set Cs[24]:=
2 3 5 10 17 23 27 30 36 ;
set Cs[25]:=
1 9 10 13 19 20 21 22 35 38 ;
set Cs[26]:=
7 25 26 28 33 ;
set Cs[27]:=
12 14 18 19 25 27 29 35 40 ;
set Cs[28]:=
10 12 22 30 32 35 ;
set Cs[29]:=
18 19 20 21 28 38 ;
set Cs[30]:=
2 7 12 13 17 19 22 31 ;
set Cs[31]:=
2 26 27 34 ;
set Cs[32]:=
3 12 14 16 20 26 28 29 37 40 ;
set Cs[33]:=
11 20 24 25 ;
set Cs[34]:=
10 12 19 24 32 38 40 ;
set Cs[35]:=
4 11 14 17 22 29 33 37 38 ;
set Cs[36]:=
4 6 7 8 14 15 26 ;
set Cs[37]:=
1 9 14 19 ;
set Cs[38]:=
3 14 17 19 28 32 36 39 ;
set Cs[39]:=
2 5 10 22 26 27 30 33 40 ;
set Cs[40]:=
10 20 32 33 39 ;
set Cs[41]:=
4 11 24 27 ;
set Cs[42]:=
8 9 20 33 ;
set Cs[43]:=
9 32 33 37 ;
set Cs[44]:=
17 19 21 28 33 40 ;
set Cs[45]:=
8 10 11 15 22 23 25 29 30 33 ;
set Cs[46]:=
4 6 22 26 32 39 ;
set Cs[47]:=
10 12 13 17 19 27 28 31 35 ;
set Cs[48]:=
1 11 12 19 25 28 35 36 39 ;
set Cs[49]:=
3 21 27 36 37 ;
set Cs[50]:=
10 14 16 24 27 29 31 34 37 ;
set Cs[51]:=
4 11 12 33 ;
set Cs[52]:=
1 6 8 13 18 20 21 28 33 35 ;
set Cs[53]:=
1 7 13 14 21 23 ;
set Cs[54]:=
14 15 21 24 28 30 38 ;
set Cs[55]:=
5 6 13 18 19 23 24 25 37 ;
set Cs[56]:=
1 13 14 18 35 ;
set Cs[57]:=
4 12 14 15 19 26 27 35 36 ;
set Cs[58]:=
1 4 8 23 24 25 28 35 36 ;
set Cs[59]:=
2 7 8 9 23 28 ;
set Cs[60]:=
1 7 16 19 23 27 32 34 ;
set Cs[61]:=
10 13 14 21 22 24 25 27 39 ;
set Cs[62]:=
2 4 7 9 22 27 30 31 40 ;
set Cs[63]:=
1 10 19 22 24 26 27 29 34 39 ;
set Cs[64]:=
1 2 14 15 18 20 22 25 ;
set Cs[65]:=
4 5 10 12 17 18 21 26 32 ;
set Cs[66]:=
3 7 13 18 26 28 29 35 36 ;
set Cs[67]:=
3 6 13 21 23 36 ;
set Cs[68]:=
6 7 10 13 24 26 31 37 ;
set Cs[69]:=
1 9 34 37 39 ;
set Cs[70]:=
7 15 20 22 24 28 30 32 40 ;
set Cs[71]:=
3 14 20 30 ;
set Cs[72]:=
18 22 24 40 ;
set Cs[73]:=
4 5 8 12 20 27 30 34 40 ;
set Cs[74]:=
3 13 22 27 31 35 ;
set Cs[75]:=
2 6 24 25 28 29 33 34 35 37 ;
set Cs[76]:=
5 19 23 28 29 39 ;
set Cs[77]:=
2 3 10 14 20 27 36 ;
set Cs[78]:=
3 5 8 11 19 29 37 ;
set Cs[79]:=
4 10 11 19 32 ;
set Cs[80]:=
2 4 8 11 14 16 21 38 40 ;

set Ra[1_1]:=
9 15 ;
set Ra[1_2]:=
6 9 16 ;
set Ra[2_1]:=
5 7 10 13 16 17 19 ;
set Ra[2_2]:=
1 2 3 5 7 9 12 15 16 18 ;
set Ra[3_1]:=
2 3 5 6 7 9 10 12 15 16 17 18 20 ;
set Ra[3_2]:=
2 3 6 7 11 12 14 15 16 ;
set Ra[4_1]:=
1 4 6 7 9 10 12 13 14 19 ;
set Ra[4_2]:=
1 2 3 5 6 7 8 9 12 13 14 15 16 17 18 20 ;
set Ra[5_1]:=
1 2 4 11 16 18 19 20 ;
set Ra[5_2]:=
3 6 7 13 16 ;
set Ra[6_1]:=
1 2 3 4 5 6 7 9 10 11 13 14 15 16 17 18 19 20 ;
set Ra[6_2]:=
2 3 4 5 7 8 10 11 12 13 15 17 18 19 ;
set Ra[6_3]:=
1 4 5 6 9 12 13 14 15 17 18 19 20 ;
set Ra[7_1]:=
2 5 8 10 14 16 17 18 ;
set Ra[7_2]:=
2 4 5 6 7 8 9 10 11 15 16 18 20 ;
set Ra[8_1]:=
4 5 6 7 8 9 19 ;
set Ra[8_2]:=
1 2 3 4 5 9 11 12 13 15 16 17 19 20 ;
set Ra[8_3]:=
1 2 3 4 5 6 7 9 11 13 14 15 16 17 19 ;
set Ra[9_1]:=
2 5 6 ;
set Ra[9_2]:=
3 13 15 17 18 20 ;
set Ra[9_3]:=
1 2 6 10 11 13 15 18 ;
set Ra[10_1]:=
5 8 10 16 18 ;
set Ra[10_2]:=
1 2 5 7 11 12 13 15 17 18 19 20 ;
set Ra[10_3]:=
8 ;
set Ra[11_1]:=
8 20 ;
set Ra[11_2]:=
2 6 7 8 9 11 12 14 17 18 20 ;
set Ra[12_1]:=
2 3 4 6 7 8 9 10 11 12 13 14 15 16 17 18 19 ;
set Ra[12_2]:=
5 6 10 11 16 18 20 ;
set Ra[13_1]:=
2 3 4 5 6 7 8 9 10 11 12 13 14 15 16 17 18 19 ;
set Ra[13_2]:=
14 ;
set Ra[14_1]:=
1 2 7 8 10 11 12 13 14 17 18 20 ;
set Ra[14_2]:=
4 6 8 9 10 11 14 15 16 18 ;
set Ra[14_3]:=
4 5 7 8 9 10 12 14 17 ;
set Ra[15_1]:=
18 ;
set Ra[15_2]:=
3 9 10 12 14 20 ;
set Ra[15_3]:=
1 2 3 4 5 6 7 8 9 10 11 12 13 14 15 16 17 18 19 20 ;
set Ra[16_1]:=
5 7 10 15 16 ;
set Ra[16_2]:=
1 2 3 4 6 7 8 9 11 12 13 14 15 16 17 18 19 20 ;
set Ra[17_1]:=
1 2 3 4 6 9 12 14 15 16 17 18 19 20 ;
set Ra[17_2]:=
1 2 3 4 5 6 7 8 9 10 11 12 13 14 15 16 17 18 19 20 ;
set Ra[17_3]:=
2 11 ;
set Ra[18_1]:=
1 2 3 4 5 6 7 9 10 11 12 13 14 15 16 17 18 19 20 ;
set Ra[18_2]:=
1 2 5 6 7 8 9 10 11 12 13 14 15 16 17 19 20 ;
set Ra[19_1]:=
1 2 5 6 7 9 10 11 12 13 15 16 18 19 20 ;
set Ra[19_2]:=
1 2 3 12 15 17 19 ;
set Ra[20_1]:=
2 3 6 7 8 10 12 13 ;
set Ra[20_2]:=
2 3 4 11 13 14 ;
set Ra[21_1]:=
1 2 3 4 5 6 7 9 11 13 14 15 18 19 20 ;
set Ra[21_2]:=
1 5 8 9 10 11 13 14 15 18 20 ;
set Ra[21_3]:=
6 ;
set Ra[22_1]:=
1 2 4 6 7 11 14 15 16 17 18 ;
set Ra[22_2]:=
5 7 10 16 ;
set Ra[22_3]:=
2 3 7 11 12 14 ;
set Ra[23_1]:=
3 5 14 15 18 19 ;
set Ra[23_2]:=
1 3 4 5 6 7 16 18 19 20 ;
set Ra[23_3]:=
1 2 3 4 5 6 7 8 10 13 14 15 16 17 18 19 20 ;
set Ra[24_1]:=
1 2 3 4 6 7 9 11 12 13 14 15 18 20 ;
set Ra[24_2]:=
1 2 5 6 7 8 9 10 12 13 15 16 18 20 ;
set Ra[24_3]:=
1 2 3 4 5 8 9 10 11 13 15 16 17 18 19 ;
set Ra[25_1]:=
5 6 11 12 14 15 16 17 19 20 ;
set Ra[25_2]:=
1 2 3 4 5 6 8 9 10 11 12 13 14 15 16 17 18 19 20 ;
set Ra[25_3]:=
3 4 5 9 10 11 12 13 15 20 ;
set Ra[26_1]:=
2 3 4 5 7 8 11 15 16 17 19 20 ;
set Ra[26_2]:=
1 3 5 7 8 12 14 15 17 18 19 ;
set Ra[26_3]:=
2 3 6 7 10 11 12 14 15 16 17 18 19 ;
set Ra[27_1]:=
6 8 19 20 ;
set Ra[27_2]:=
9 11 ;
set Ra[28_1]:=
1 2 3 5 7 9 10 11 12 14 16 17 18 19 20 ;
set Ra[28_2]:=
7 10 15 16 ;
set Ra[29_1]:=
2 4 8 10 12 15 16 17 20 ;
set Ra[29_2]:=
1 7 10 11 13 16 17 18 20 ;
set Ra[30_1]:=
2 3 4 5 6 7 9 10 11 12 13 14 16 17 18 19 ;
set Ra[30_2]:=
2 4 5 7 8 11 13 14 17 ;
set Ra[30_3]:=
2 ;
set Ra[31_1]:=
1 2 3 4 5 6 7 8 9 10 11 12 13 14 15 16 17 18 20 ;
set Ra[31_2]:=
1 3 5 6 7 8 10 12 13 14 15 17 18 ;
set Ra[32_1]:=
2 6 14 19 ;
set Ra[32_2]:=
1 4 5 6 7 8 9 11 13 14 16 17 18 19 20 ;
set Ra[32_3]:=
1 2 3 4 5 6 7 8 9 10 11 12 13 14 15 17 18 19 20 ;
set Ra[33_1]:=
8 10 15 ;
set Ra[33_2]:=
1 2 3 4 5 6 7 9 10 11 12 13 14 15 17 18 19 20 ;
set Ra[34_1]:=
5 6 7 10 16 20 ;
set Ra[34_2]:=
1 3 5 ;
set Ra[34_3]:=
2 5 10 16 19 ;
set Ra[35_1]:=
5 12 17 20 ;
set Ra[35_2]:=
1 2 3 4 5 6 7 8 9 10 11 12 13 14 15 16 17 18 19 20 ;
set Ra[36_1]:=
1 2 4 6 7 11 12 13 14 15 16 17 19 20 ;
set Ra[36_2]:=
1 2 3 4 5 8 11 12 13 16 17 19 20 ;
set Ra[37_1]:=
3 ;
set Ra[37_2]:=
1 2 3 4 6 7 8 9 10 11 12 13 14 15 16 17 18 19 20 ;
set Ra[38_1]:=
3 7 8 12 ;
set Ra[38_2]:=
14 19 ;
set Ra[39_1]:=
2 3 4 5 6 7 8 12 13 14 15 19 ;
set Ra[39_2]:=
1 2 3 6 8 9 10 12 14 15 16 19 ;
set Ra[40_1]:=
2 11 13 15 16 18 ;
set Ra[40_2]:=
2 7 12 18 ;
set Ra[40_3]:=
2 5 6 7 8 10 12 13 14 16 18 19 20 ;

set Ts[1]:=
1_7_8 1_9_10 2_15_16 4_11_12 5_17_18 ;
set Ts[2]:=
1_13_14 2_3_4 2_7_8 2_11_12 2_13_14 2_19_20 3_19_20 4_15_16 5_1_2 ;
set Ts[3]:=
1_7_8 1_15_16 2_3_4 2_5_6 2_13_14 3_3_4 4_5_6 4_9_10 ;
set Ts[4]:=
1_11_12 1_15_16 2_13_14 2_17_18 4_5_6 5_1_2 ;
set Ts[5]:=
1_7_8 1_13_14 3_19_20 4_11_12 4_15_16 5_3_4 5_5_6 5_15_16 ;
set Ts[6]:=
1_9_10 1_17_18 2_3_4 2_17_18 3_5_6 3_7_8 3_9_10 3_15_16 4_3_4 4_5_6 4_9_10 4_13_14 5_3_4 5_11_12 5_15_16 ;
set Ts[7]:=
1_1_2 1_9_10 3_7_8 3_9_10 3_15_16 3_17_18 3_19_20 4_1_2 4_11_12 4_19_20 5_9_10 ;
set Ts[8]:=
2_9_10 4_15_16 5_9_10 5_11_12 5_13_14 5_19_20 ;
set Ts[9]:=
1_1_2 2_9_10 2_15_16 3_13_14 4_1_2 4_5_6 4_13_14 4_15_16 4_17_18 5_5_6 5_7_8 5_11_12 5_13_14 ;
set Ts[10]:=
1_3_4 2_5_6 3_13_14 3_17_18 3_19_20 4_3_4 4_17_18 5_9_10 ;
set Ts[11]:=
1_1_2 2_13_14 2_17_18 3_7_8 4_15_16 ;
set Ts[12]:=
1_5_6 2_15_16 3_11_12 4_13_14 4_15_16 ;
set Ts[13]:=
1_11_12 1_15_16 2_13_14 2_17_18 3_1_2 3_17_18 4_1_2 5_3_4 5_5_6 ;
set Ts[14]:=
1_9_10 1_11_12 2_5_6 2_9_10 2_11_12 2_17_18 2_19_20 3_1_2 3_11_12 3_17_18 4_1_2 5_1_2 5_9_10 5_11_12 ;
set Ts[15]:=
1_3_4 1_13_14 1_17_18 2_19_20 5_11_12 ;
set Ts[16]:=
2_9_10 2_13_14 2_15_16 4_13_14 5_5_6 ;
set Ts[17]:=
2_17_18 3_9_10 3_11_12 3_15_16 4_3_4 4_9_10 5_13_14 ;
set Ts[18]:=
4_7_8 4_19_20 5_7_8 ;
set Ts[19]:=
1_11_12 1_15_16 3_17_18 4_19_20 5_15_16 ;
set Ts[20]:=
1_3_4 1_7_8 1_9_10 1_13_14 1_15_16 2_7_8 2_13_14 3_5_6 4_1_2 4_5_6 4_11_12 4_19_20 5_5_6 5_13_14 ;
set Ts[21]:=
1_15_16 1_17_18 2_17_18 3_7_8 3_13_14 4_19_20 5_3_4 5_15_16 ;
set Ts[22]:=
2_5_6 4_1_2 4_3_4 4_19_20 ;
set Ts[23]:=
2_19_20 4_3_4 4_11_12 ;
set Ts[24]:=
1_1_2 2_1_2 4_9_10 4_15_16 5_5_6 5_7_8 5_11_12 ;
set Ts[25]:=
1_9_10 1_11_12 1_13_14 1_19_20 2_1_2 2_11_12 2_13_14 2_19_20 3_7_8 3_19_20 5_5_6 5_7_8 ;
set Ts[26]:=
1_15_16 2_13_14 2_17_18 3_1_2 3_15_16 3_19_20 4_9_10 5_15_16 ;
set Ts[27]:=
3_5_6 4_7_8 5_13_14 ;
set Ts[28]:=
1_1_2 1_15_16 3_11_12 5_5_6 ;
set Ts[29]:=
1_7_8 1_9_10 1_11_12 2_1_2 2_9_10 2_15_16 3_7_8 3_11_12 4_3_4 4_9_10 5_1_2 5_3_4 5_9_10 5_15_16 5_19_20 ;
set Ts[30]:=
1_15_16 2_5_6 2_13_14 2_17_18 2_19_20 3_5_6 3_11_12 3_15_16 3_17_18 3_19_20 4_7_8 4_17_18 4_19_20 ;
set Ts[31]:=
1_17_18 1_19_20 2_11_12 2_17_18 3_15_16 4_17_18 4_19_20 5_1_2 ;
set Ts[32]:=
1_5_6 1_17_18 2_15_16 4_5_6 4_19_20 5_1_2 5_13_14 ;
set Ts[33]:=
1_1_2 1_5_6 1_11_12 2_7_8 2_9_10 3_7_8 3_13_14 3_17_18 4_5_6 4_9_10 4_13_14 4_15_16 5_7_8 5_11_12 ;
set Ts[34]:=
1_11_12 2_1_2 2_7_8 2_11_12 4_5_6 4_7_8 5_13_14 ;
set Ts[35]:=
1_3_4 1_11_12 1_17_18 2_7_8 2_15_16 2_17_18 2_19_20 3_5_6 3_11_12 4_1_2 4_17_18 5_1_2 5_5_6 5_9_10 ;
set Ts[36]:=
1_1_2 1_7_8 1_9_10 1_13_14 2_5_6 4_5_6 4_15_16 ;
set Ts[37]:=
1_17_18 1_19_20 2_5_6 2_9_10 2_15_16 2_17_18 3_3_4 3_7_8 3_11_12 3_17_18 4_5_6 5_1_2 5_13_14 ;
set Ts[38]:=
1_9_10 2_3_4 2_7_8 3_5_6 4_11_12 5_19_20 ;
set Ts[39]:=
1_9_10 1_13_14 1_17_18 2_5_6 2_13_14 2_17_18 3_9_10 4_13_14 5_9_10 ;
set Ts[40]:=
3_1_2 3_11_12 3_13_14 3_15_16 4_13_14 5_17_18 5_19_20 ;
set Ts[41]:=
1_17_18 2_15_16 4_5_6 ;
set Ts[42]:=
1_1_2 1_11_12 2_15_16 ;
set Ts[43]:=
1_13_14 1_15_16 2_7_8 2_9_10 3_5_6 3_7_8 3_11_12 4_17_18 4_19_20 5_5_6 5_7_8 5_15_16 ;
set Ts[44]:=
1_11_12 2_3_4 3_1_2 3_11_12 5_1_2 ;
set Ts[45]:=
1_17_18 1_19_20 2_5_6 4_3_4 4_5_6 ;
set Ts[46]:=
1_9_10 1_15_16 1_17_18 2_7_8 3_1_2 3_5_6 3_13_14 4_1_2 4_9_10 4_17_18 5_3_4 5_9_10 ;
set Ts[47]:=
1_13_14 1_17_18 2_7_8 2_15_16 3_11_12 4_1_2 5_3_4 5_13_14 ;
set Ts[48]:=
1_11_12 2_7_8 2_9_10 3_5_6 3_17_18 4_7_8 4_9_10 4_15_16 5_11_12 5_17_18 ;
set Ts[49]:=
1_9_10 1_11_12 2_7_8 2_15_16 2_17_18 2_19_20 3_9_10 3_11_12 3_15_16 4_7_8 4_11_12 4_17_18 5_3_4 5_13_14 ;
set Ts[50]:=
1_9_10 1_11_12 2_7_8 2_9_10 3_7_8 3_9_10 4_7_8 ;
set Ts[51]:=
1_11_12 1_13_14 1_17_18 3_1_2 3_3_4 3_11_12 3_13_14 3_17_18 3_19_20 4_1_2 4_3_4 4_9_10 4_19_20 5_5_6 5_15_16 ;
set Ts[52]:=
1_7_8 3_7_8 4_19_20 5_3_4 5_11_12 ;
set Ts[53]:=
1_17_18 2_7_8 3_11_12 4_7_8 ;
set Ts[54]:=
1_11_12 2_13_14 3_3_4 3_11_12 3_17_18 4_3_4 4_9_10 4_17_18 5_19_20 ;
set Ts[55]:=
2_3_4 2_17_18 3_1_2 3_3_4 4_5_6 4_9_10 5_3_4 5_19_20 ;
set Ts[56]:=
1_1_2 1_17_18 4_3_4 4_7_8 4_9_10 4_17_18 4_19_20 5_7_8 5_17_18 ;
set Ts[57]:=
1_9_10 3_5_6 4_1_2 4_7_8 4_19_20 5_9_10 5_13_14 ;
set Ts[58]:=
1_1_2 1_3_4 1_7_8 1_11_12 1_13_14 1_19_20 2_7_8 2_13_14 3_7_8 4_19_20 5_7_8 5_11_12 ;
set Ts[59]:=
1_1_2 1_7_8 1_15_16 1_19_20 2_17_18 5_5_6 5_9_10 ;
set Ts[60]:=
1_1_2 1_17_18 2_1_2 2_9_10 3_7_8 3_11_12 3_13_14 4_1_2 4_13_14 5_1_2 5_13_14 ;
set Ts[61]:=
2_3_4 2_15_16 3_7_8 ;
set Ts[62]:=
3_11_12 4_15_16 5_5_6 ;
set Ts[63]:=
2_1_2 4_7_8 4_11_12 5_11_12 5_13_14 ;
set Ts[64]:=
1_19_20 2_15_16 3_5_6 3_9_10 3_17_18 4_9_10 4_15_16 ;
set Ts[65]:=
1_5_6 1_17_18 1_19_20 3_3_4 3_7_8 3_15_16 3_17_18 4_5_6 4_7_8 4_13_14 5_5_6 5_7_8 5_17_18 ;
set Ts[66]:=
1_3_4 1_9_10 1_13_14 1_15_16 2_5_6 2_13_14 3_7_8 3_13_14 4_5_6 4_11_12 4_13_14 5_3_4 5_11_12 5_15_16 5_19_20 ;
set Ts[67]:=
1_1_2 1_5_6 1_7_8 1_15_16 2_5_6 3_11_12 4_11_12 5_9_10 5_17_18 ;
set Ts[68]:=
1_3_4 2_5_6 2_11_12 3_9_10 3_15_16 3_19_20 4_1_2 4_15_16 5_5_6 5_11_12 ;
set Ts[69]:=
1_5_6 1_11_12 1_15_16 1_19_20 2_9_10 2_15_16 3_3_4 3_5_6 3_11_12 4_3_4 ;
set Ts[70]:=
1_1_2 2_17_18 2_19_20 3_9_10 3_17_18 4_11_12 4_13_14 4_15_16 5_11_12 5_17_18 ;
set Ts[71]:=
1_9_10 1_11_12 2_15_16 2_17_18 3_3_4 3_5_6 3_9_10 4_3_4 4_9_10 5_5_6 5_9_10 5_17_18 ;
set Ts[72]:=
1_1_2 1_19_20 2_17_18 2_19_20 3_17_18 5_5_6 ;
set Ts[73]:=
1_11_12 1_17_18 2_1_2 2_3_4 2_15_16 2_17_18 2_19_20 3_3_4 4_5_6 4_15_16 5_1_2 5_13_14 5_19_20 ;
set Ts[74]:=
2_11_12 3_7_8 3_13_14 4_5_6 4_15_16 4_17_18 5_1_2 ;
set Ts[75]:=
1_11_12 2_3_4 2_11_12 2_15_16 3_3_4 3_5_6 3_13_14 4_11_12 5_9_10 ;
set Ts[76]:=
1_19_20 2_1_2 2_11_12 3_1_2 4_1_2 4_3_4 4_13_14 5_1_2 5_3_4 5_11_12 5_13_14 ;
set Ts[77]:=
1_13_14 2_17_18 3_19_20 4_17_18 4_19_20 ;
set Ts[78]:=
1_7_8 1_19_20 2_15_16 3_13_14 4_3_4 4_9_10 5_7_8 ;
set Ts[79]:=
1_3_4 1_7_8 1_19_20 2_9_10 2_15_16 3_1_2 4_5_6 4_9_10 4_13_14 4_15_16 5_5_6 5_19_20 ;
set Ts[80]:=
1_3_4 1_5_6 1_11_12 1_13_14 2_3_4 2_13_14 2_17_18 3_1_2 3_7_8 4_1_2 4_13_14 4_17_18 5_5_6 5_17_18 ;

param rho:=
2 20
5 20
6 20
7 20
8 20
10 20
12 20
13 20
14 20
16 20
18 20
19 20
20 20
;

param sigma_class:=
2 25
4 25
8 25
11 25
14 25
16 25
21 25
38 25
40 25
;

param kmin:=
1 3
2 4
3 4
4 2
5 4
6 3
7 2
8 4
9 4
10 2
11 2
12 3
13 4
14 5
15 3
16 2
17 5
18 4
19 4
20 4
21 3
22 2
23 4
24 4
25 5
26 2
27 4
28 3
29 3
30 4
31 2
32 5
33 2
34 3
35 4
36 3
37 2
38 4
39 4
40 2
41 2
42 2
43 2
44 3
45 5
46 3
47 4
48 4
49 2
50 4
51 2
52 5
53 3
54 3
55 4
56 2
57 4
58 4
59 3
60 4
61 4
62 4
63 5
64 4
65 4
66 4
67 3
68 4
69 2
70 4
71 2
72 2
73 4
74 3
75 5
76 3
77 3
78 3
79 2
80 4
;

param kmax:=
1 7
2 9
3 8
4 5
5 8
6 6
7 4
8 8
9 8
10 5
11 4
12 6
13 9
14 10
15 7
16 5
17 10
18 8
19 9
20 8
21 6
22 5
23 8
24 9
25 10
26 5
27 9
28 6
29 6
30 8
31 4
32 10
33 4
34 7
35 9
36 7
37 4
38 8
39 9
40 5
41 4
42 4
43 4
44 6
45 10
46 6
47 9
48 9
49 5
50 9
51 4
52 10
53 6
54 7
55 9
56 5
57 9
58 9
59 6
60 8
61 9
62 9
63 10
64 8
65 9
66 9
67 6
68 8
69 5
70 9
71 4
72 4
73 9
74 6
75 10
76 6
77 7
78 7
79 5
80 9
;

